data/instances/vrp_files/train_4.vrp
NAME : 4
COMMENT : Generated instance No. 4
TYPE : CVRP
DIMENSION : 21
EDGE_WEIGHT_TYPE : EUC_2D
CAPACITY : 30
NODE_COORD_SECTION
 1 578 438
 2 883 747
 3 953 330
 4 552 572
 5 980 75
 6 305 190
 7 268 485
 8 372 394
 9 844 930
 10 70 208
 11 671 358
 12 254 295
 13 322 848
 14 136 708
 15 552 296
 16 419 256
 17 611 81
 18 5 627
 19 194 70
 20 396 50
 21 886 27
DEMAND_SECTION
1 0
2 6
3 3
4 9
5 10
6 6
7 10
8 10
9 6
10 1
11 4
12 10
13 6
14 6
15 5
16 1
17 8
18 5
19 5
20 7
21 4
DEPOT_SECTION
 1
 -1
EOF